(set-info :smt-lib-version 2.6)
(set-logic QF_BV)
(set-info :source |
 Patrice Godefroid, SAGE (systematic dynamic test generation)
 For more information: http://research.microsoft.com/en-us/um/people/pg/public_psfiles/ndss2008.pdf
|)
(set-info :category "industrial")
(set-info :status sat)
(declare-fun T4_31469 () (_ BitVec 32))
(declare-fun T1_31469 () (_ BitVec 8))
(declare-fun T1_31470 () (_ BitVec 8))
(declare-fun T1_31471 () (_ BitVec 8))
(declare-fun T1_31472 () (_ BitVec 8))
(assert (and true (= T4_31469 (bvor (bvshl (bvor (bvshl (bvor (bvshl ((_ zero_extend 24) T1_31472) (_ bv8 32)) ((_ zero_extend 24) T1_31471)) (_ bv8 32)) ((_ zero_extend 24) T1_31470)) (_ bv8 32)) ((_ zero_extend 24) T1_31469))) (bvult (bvadd T4_31469 (_ bv8 32)) T4_31469) (bvule (_ bv8 32) T4_31469)))
(check-sat)
(exit)
